atom_style molecular
boundary p p p
units real
read_data lammps-AT-config
bond_style harmonic
bond_coeff 1 450 1.54
special_bonds lj 0.0 0.0 0.0 angle no dihedral no
angle_style harmonic
angle_coeff 1 61.875 114.00
dihedral_style opls
dihedral_coeff * 1.14110 -0.27084 3.143 0.0
mass * 14.0
pair_style soft 10.5
pair_coeff * * 10.0
variable prefactor equal ramp(10,100)
fix 1 all adapt 1 pair soft a * * v_prefactor
neighbor 0.4 bin
neigh_modify every 1 delay 0 check yes
thermo_style custom step temp press ke pe etotal
thermo_modify lost warn
thermo 1000
dump coords all atom 1 dump.xyz.dat
dump_modify coords scale no
restart 10000 restart.dat
run 20000
write_restart FINALCONFIG
